\ENCODING=ISO-8859-1
\Problem name: nexp-50-20-1-1.mps

Maximize
 obj: 1 x.0.1            + 1 x.1.1            + 1 x.2.1            + 1 x.3.1            + 1 x.4.1            + 1 x.5.1            + 1 x.6.1            + 1 x.7.1            + 1 x.8.1            + 1 x.9.1            + 1 x.10.1           + 1 x.11.1           + 1 x.12.1           + 1 x.13.1           + 1 x.14.1           + 1 x.15.1           + 1 x.16.1           + 1 x.17.1           + 1 x.18.1           + 1 x.19.1           + 1 x.20.1           + 1 x.21.1           + 1 x.22.1           + 1 x.23.1           + 1 x.24.1           + 1 x.25.1           + 1 x.26.1           + 1 x.27.1           + 1 x.28.1           + 1 x.29.1           + 1 x.30.1           + 1 x.31.1           + 1 x.32.1           + 1 x.33.1           + 1 x.34.1           + 1 x.35.1           + 1 x.36.1           + 1 x.37.1           + 1 x.38.1           + 1 x.39.1           + 1 x.40.1           + 1 x.41.1           + 1 x.42.1           + 1 x.43.1           + 1 x.44.1           + 1 x.45.1           + 1 x.46.1           + 1 x.47.1           + 1 x.48.1           + 1 x.49.1           + 1 x.50.1           + 1 x.51.1           + 1 x.52.1           + 1 x.53.1           + 1 x.54.1           + 1 x.55.1           + 1 x.56.1           + 1 x.57.1           + 1 x.58.1           + 1 x.59.1           + 1 x.60.1           + 1 x.61.1           + 1 x.62.1           + 1 x.63.1           + 1 x.64.1           + 1 x.65.1           + 1 x.66.1           + 1 x.67.1           + 1 x.68.1           + 1 x.69.1           + 1 x.70.1           + 1 x.71.1           + 1 x.72.1           + 1 x.73.1           + 1 x.74.1           + 1 x.75.1           + 1 x.76.1           + 1 x.77.1           + 1 x.78.1           + 1 x.79.1           + 1 x.80.1           + 1 x.81.1           + 1 x.82.1           + 1 x.83.1           + 1 x.84.1           + 1 x.85.1           + 1 x.86.1           + 1 x.87.1           + 1 x.88.1           + 1 x.89.1           + 1 x.90.1           + 1 x.91.1           + 1 x.92.1           + 1 x.93.1           + 1 x.94.1           + 1 x.95.1           + 1 x.96.1           + 1 x.97.1           + 1 x.98.1           + 1 x.99.1           + 1 x.100.1          + 1 x.101.1          + 1 x.102.1          + 1 x.103.1          + 1 x.104.1          + 1 x.105.1          + 1 x.106.1          + 1 x.107.1          + 1 x.108.1          + 1 x.109.1          + 1 x.110.1          + 1 x.111.1          + 1 x.112.1          + 1 x.113.1          + 1 x.114.1          + 1 x.115.1          + 1 x.116.1          + 1 x.117.1          + 1 x.118.1          + 1 x.119.1          + 1 x.120.1          + 1 x.121.1          + 1 x.122.1          + 1 x.123.1          + 1 x.124.1          + 1 x.125.1          + 1 x.126.1          + 1 x.127.1          + 1 x.128.1          + 1 x.129.1          + 1 x.130.1          + 1 x.131.1          + 1 x.132.1          + 1 x.133.1          + 1 x.134.1          + 1 x.135.1          + 1 x.136.1          + 1 x.137.1          + 1 x.138.1          + 1 x.139.1          + 1 x.140.1          + 1 x.141.1          + 1 x.142.1          + 1 x.143.1          + 1 x.144.1          + 1 x.145.1          + 1 x.146.1          + 1 x.147.1          + 1 x.148.1          + 1 x.149.1          + 1 x.150.1          + 1 x.151.1          + 1 x.152.1          + 1 x.153.1          + 1 x.154.1          + 1 x.155.1          + 1 x.156.1          + 1 x.157.1          + 1 x.158.1          + 1 x.159.1          + 1 x.160.1          + 1 x.161.1          + 1 x.162.1          + 1 x.163.1          + 1 x.164.1          + 1 x.165.1          + 1 x.166.1          + 1 x.167.1          + 1 x.168.1          + 1 x.169.1          + 1 x.170.1          + 1 x.171.1          + 1 x.172.1          + 1 x.173.1          + 1 x.174.1          + 1 x.175.1          + 1 x.176.1          + 1 x.177.1          + 1 x.178.1          + 1 x.179.1          + 1 x.180.1          + 1 x.181.1          + 1 x.182.1          + 1 x.183.1          + 1 x.184.1          + 1 x.185.1          + 1 x.186.1          + 1 x.187.1          + 1 x.188.1          + 1 x.189.1          + 1 x.190.1          + 1 x.191.1          + 1 x.192.1          + 1 x.193.1          + 1 x.194.1          + 1 x.195.1          + 1 x.196.1          + 1 x.197.1          + 1 x.198.1          + 1 x.199.1          + 1 x.200.1          + 1 x.201.1          + 1 x.202.1          + 1 x.203.1          + 1 x.204.1          + 1 x.205.1          + 1 x.206.1          + 1 x.207.1          + 1 x.208.1          + 1 x.209.1          + 1 x.210.1          + 1 x.211.1          + 1 x.212.1          + 1 x.213.1          + 1 x.214.1          + 1 x.215.1          + 1 x.216.1          + 1 x.217.1          + 1 x.218.1          + 1 x.219.1          + 1 x.220.1          + 1 x.221.1          + 1 x.222.1          + 1 x.223.1          + 1 x.224.1          + 1 x.225.1          + 1 x.226.1          + 1 x.227.1          + 1 x.228.1          + 1 x.229.1          + 1 x.230.1          + 1 x.231.1          + 1 x.232.1          + 1 x.233.1          + 1 x.234.1          + 1 x.235.1          + 1 x.236.1          + 1 x.237.1          + 1 x.238.1          + 1 x.239.1          + 1 x.240.1          + 1 x.241.1          + 1 x.242.1          + 1 x.243.1          + 1 x.244.1          + 0 y.0              + 0 y.96             + 0 y.111            + 0 y.140            + 0 y.152            + 0 y.156            + 0 y.166            + 0 y.197            + 0 y.198            + 0 y.202            + 0 y.244            + 0 y.25             + 0 y.29             + 0 y.31             + 0 y.42             + 0 y.49             + 0 y.64             + 0 y.93             + 0 y.116            + 0 y.136            + 0 y.173            + 0 y.217            + 0 y.14             + 0 y.26             + 0 y.92             + 0 y.108            + 0 y.115            + 0 y.124            + 0 y.126            + 0 y.153            + 0 y.154            + 0 y.191            + 0 y.194            + 0 y.215            + 0 y.232            + 0 y.1              + 0 y.3              + 0 y.53             + 0 y.57             + 0 y.59             + 0 y.80             + 0 y.164            + 0 y.175            + 0 y.186            + 0 y.200            + 0 y.23             + 0 y.36             + 0 y.48             + 0 y.120            + 0 y.183            + 0 y.199            + 0 y.11             + 0 y.37             + 0 y.81             + 0 y.104            + 0 y.10             + 0 y.12             + 0 y.18             + 0 y.24             + 0 y.52             + 0 y.121            + 0 y.125            + 0 y.138            + 0 y.163            + 0 y.176            + 0 y.218            + 0 y.45             + 0 y.68             + 0 y.150            + 0 y.167            + 0 y.238            + 0 y.20             + 0 y.30             + 0 y.40             + 0 y.77             + 0 y.141            + 0 y.212            + 0 y.214            + 0 y.219            + 0 y.243            + 0 y.6              + 0 y.41             + 0 y.56             + 0 y.73             + 0 y.87             + 0 y.100            + 0 y.145            + 0 y.161            + 0 y.170            + 0 y.35             + 0 y.69             + 0 y.79             + 0 y.85             + 0 y.113            + 0 y.237            + 0 y.13             + 0 y.28             + 0 y.78             + 0 y.90             + 0 y.97             + 0 y.106            + 0 y.143            + 0 y.147            + 0 y.209            + 0 y.228            + 0 y.233            + 0 y.47             + 0 y.102            + 0 y.179            + 0 y.242            + 0 y.9              + 0 y.99             + 0 y.101            + 0 y.110            + 0 y.119            + 0 y.139            + 0 y.169            + 0 y.190            + 0 y.55             + 0 y.86             + 0 y.112            + 0 y.132            + 0 y.189            + 0 y.223            + 0 y.129            + 0 y.148            + 0 y.221            + 0 y.239            + 0 y.61             + 0 y.71             + 0 y.187            + 0 y.222            + 0 y.227            + 0 y.17             + 0 y.54             + 0 y.83             + 0 y.98             + 0 y.109            + 0 y.131            + 0 y.177            + 0 y.188            + 0 y.211            + 0 y.216            + 0 y.34             + 0 y.39             + 0 y.133            + 0 y.178            + 0 y.204            + 0 y.210            + 0 y.7              + 0 y.51             + 0 y.60             + 0 y.181            + 0 y.213            + 0 y.230            + 0 y.8              + 0 y.19             + 0 y.21             + 0 y.127            + 0 y.146            + 0 y.149            + 0 y.172            + 0 y.43             + 0 y.89             + 0 y.105            + 0 y.159            + 0 y.65             + 0 y.91             + 0 y.184            + 0 y.225            + 0 y.157            + 0 y.182            + 0 y.226            + 0 y.27             + 0 y.50             + 0 y.88             + 0 y.95             + 0 y.114            + 0 y.117            + 0 y.130            + 0 y.180            + 0 y.205            + 0 y.234            + 0 y.235            + 0 y.4              + 0 y.22             + 0 y.46             + 0 y.66             + 0 y.158            + 0 y.185            + 0 y.220            + 0 y.224            + 0 y.229            + 0 y.165            + 0 y.5              + 0 y.128            + 0 y.144            + 0 y.171            + 0 y.174            + 0 y.196            + 0 y.201            + 0 y.82             + 0 y.168            + 0 y.44             + 0 y.70             + 0 y.137            + 0 y.72             + 0 y.207            + 0 y.208            + 0 y.63             + 0 y.135            + 0 y.16             + 0 y.67             + 0 y.74             + 0 y.122            + 0 y.2              + 0 y.33             + 0 y.58             + 0 y.162            + 0 y.240            + 0 y.142            + 0 y.155            + 0 y.236            + 0 y.15             + 0 y.38             + 0 y.62             + 0 y.134            + 0 y.160            + 0 y.193            + 0 y.84             + 0 y.118            + 0 y.195            + 0 y.32             + 0 y.94             + 0 y.107            + 0 y.151            + 0 y.241            + 0 y.231            + 0 y.76             + 0 y.123            + 0 y.192            + 0 y.203            + 0 y.75             + 0 y.103            + 0 y.206 
Subject To
 DEM0:    - y.0 + y.96 - y.111 - y.140 - y.152 + y.156 + y.166 + y.197 + y.198
          - y.202 + y.244 <= -66
 DEM1:    y.25 - y.29 - y.31 + y.42 + y.49 + y.64 - y.93 + y.116 + y.136
          + y.173 + y.217 >= 2
 DEM2:    - y.14 - y.26 + y.92 + y.108 - y.115 - y.124 - y.126 - y.153 - y.154
          + y.191 + y.194 - y.215 - y.232 >= 9
 DEM3:    - y.1 - y.3 + y.53 + y.57 - y.59 + y.80 - y.164 + y.175 + y.186
          + y.200  = 0
 DEM4:    - y.96 + y.153 + y.23 - y.36 + y.48 + y.120 - y.183 + y.199 >= 9
 DEM5:    y.59 + y.36 - y.11 - y.37 + y.81 + y.104 >= 3
 DEM6:    - y.173 - y.186 + y.10 + y.12 - y.18 - y.24 + y.52 + y.121 + y.125
          + y.138 - y.163 + y.176 + y.218 >= 2
 DEM7:    - y.45 - y.68 + y.150 + y.167 + y.238 >= 6
 DEM8:    - y.92 + y.232 - y.80 + y.20 + y.30 + y.40 - y.77 - y.141 + y.212
          - y.214 - y.219 - y.243 >= 3
 DEM9:    y.37 + y.141 + y.6 - y.41 - y.56 - y.73 - y.87 - y.100 + y.145
          - y.161 + y.170  = 0
 DEM10:   y.215 - y.212 - y.35 - y.69 + y.79 - y.85 - y.113 - y.237 >= 4
 DEM11:   y.93 - y.191 - y.199 - y.13 + y.28 - y.78 + y.90 + y.97 - y.106
          - y.143 + y.147 + y.209 - y.228 - y.233 >= 4
 DEM12:   y.140 + y.77 - y.147 - y.47 - y.102 + y.179 - y.242  = 0
 DEM13:   y.242 + y.9 + y.99 - y.101 - y.110 + y.119 + y.139 - y.169 - y.190
          >= 1
 DEM14:   - y.198 - y.108 + y.85 - y.55 - y.86 + y.112 + y.132 - y.189 - y.223
          >= 7
 DEM15:   y.26 + y.41 + y.189 - y.129 + y.148 + y.221 + y.239  = 0
 DEM16:   y.61 + y.71 - y.187 - y.222 - y.227  = 0
 DEM17:   - y.166 + y.100 + y.237 - y.179 + y.17 - y.54 - y.83 - y.98 + y.109
          + y.131 - y.177 - y.188 - y.211 - y.216 >= 9
 DEM18:   - y.64 + y.154 + y.34 - y.39 + y.133 - y.178 + y.204 - y.210 >= 1
 DEM19:   - y.25 + y.113 - y.139 + y.190 - y.148 - y.7 - y.51 + y.60 + y.181
          + y.213 - y.230 >= 2
 DEM20:   - y.49 - y.81 + y.69 - y.79 + y.210 - y.8 + y.19 + y.21 + y.127
          + y.146 + y.149 + y.172 >= 3
 DEM21:   - y.175 - y.10 + y.56 + y.228 + y.211 + y.43 - y.89 - y.105 + y.159
          >= 2
 DEM22:   y.1 - y.57 - y.238 + y.89 + y.65 - y.91 - y.184 + y.225 <= -66
 DEM23:   y.124 + y.169 - y.43 + y.157 - y.182 - y.226  = 0
 DEM24:   - y.53 - y.225 - y.27 - y.50 - y.88 - y.95 + y.114 + y.117 - y.130
          + y.180 - y.205 - y.234 + y.235  = 0
 DEM25:   y.126 - y.30 + y.106 - y.9 + y.55 - y.204 - y.235 + y.4 - y.22 - y.46
          - y.66 + y.158 + y.185 - y.220 - y.224 - y.229 >= 6
 DEM26:   y.45 + y.110 + y.129 - y.239 - y.146 - y.165 <= -66
 DEM27:   y.152 + y.178 - y.185 + y.5 - y.128 - y.144 - y.171 + y.174 + y.196
          + y.201  = 0
 DEM28:   - y.200 + y.183 + y.18 - y.112 - y.149 + y.229 - y.82 + y.168 >= 4
 DEM29:   y.24 - y.52 + y.101 - y.61 + y.95 + y.44 + y.70 - y.137 <= -66
 DEM30:   - y.167 + y.243 + y.87 + y.13 + y.223 + y.51 + y.184 - y.157 + y.50
          + y.72 - y.207 - y.208 >= 5
 DEM31:   y.11 - y.209 + y.83 - y.131 + y.8 + y.130 + y.63 - y.135 >= 8
 DEM32:   - y.28 + y.91 + y.182 + y.27 - y.16 + y.67 - y.74 + y.122  = 0
 DEM33:   - y.20 + y.233 - y.119 - y.71 + y.222 + y.98 + y.234 + y.137 - y.63
          - y.2 - y.33 - y.58 + y.162 - y.240  = 0
 DEM34:   y.163 + y.214 + y.73 + y.102 + y.54 + y.230 - y.158 + y.165 + y.171
          + y.33 - y.142 - y.155 + y.236 >= 9
 DEM35:   - y.244 - y.116 - y.48 - y.104 + y.35 - y.127 + y.205 + y.224 + y.82
          - y.15 - y.38 + y.62 + y.134 >= 8
 DEM36:   - y.12 - y.145 - y.132 - y.109 + y.160 - y.193  = 0
 DEM37:   - y.218 + y.227 - y.19 + y.105 + y.66 + y.74 + y.240 - y.62 - y.84
          + y.118 - y.195  = 0
 DEM38:   - y.194 + y.187 - y.21 - y.32 - y.94 - y.107 + y.151 + y.241 >= 1
 DEM39:   y.202 - y.136 - y.133 - y.172 + y.46 - y.5 - y.72 - y.241 - y.231
          >= 8
 DEM40:   y.0 + y.3 - y.40 - y.6 + y.143 - y.34 - y.65 + y.144 + y.208 + y.155
          + y.15 - y.151 + y.76 - y.123 + y.192 + y.203  = 0
 DEM41:   y.29 + y.115 - y.121 + y.47 + y.86 + y.216 + y.7 - y.181 - y.76  = 0
 DEM42:   y.68 - y.150 + y.219 + y.39 + y.226 - y.180 + y.16 - y.134 + y.107
          - y.192 + y.75 - y.103  = 0
 DEM43:   - y.42 + y.177 - y.114 - y.174 + y.2 - y.162 + y.142 - y.160 - y.75
          + y.103 - y.206  = 0
 DEM44:   y.164 - y.117 - y.4 + y.220 - y.196 - y.70 - y.118 >= 4
 DEM45:   y.78 - y.213 - y.159 + y.22 + y.135 + y.58 + y.38 + y.32 >= 6
 DEM46:   - y.156 - y.138 - y.17 - y.168 + y.195  = 0
 DEM47:   y.31 - y.176 - y.90 - y.221 + y.188 - y.122 - y.236 + y.94 + y.206
           = 0
 DEM48:   y.111 + y.14 - y.23 - y.125 + y.161 - y.97 - y.60 + y.88 - y.201
          - y.44 - y.67 + y.193 + y.84 + y.231 + y.123 >= 8
 DEM49:   - y.197 - y.217 - y.120 - y.170 - y.99 + y.128 + y.207 - y.203 >= 5
 AVUB0:   - 33 x.0.1 + y.0 <= 0
 AVUB1:   - 33 x.1.1 + y.1 <= 0
 AVUB2:   - 33 x.2.1 + y.2 <= 0
 AVUB3:   - 33 x.3.1 + y.3 <= 0
 AVUB4:   - 33 x.4.1 + y.4 <= 0
 AVUB5:   - 33 x.5.1 + y.5 <= 0
 AVUB6:   - 33 x.6.1 + y.6 <= 0
 AVUB7:   - 33 x.7.1 + y.7 <= 0
 AVUB8:   - 33 x.8.1 + y.8 <= 0
 AVUB9:   - 33 x.9.1 + y.9 <= 0
 AVUB10:  - 33 x.10.1 + y.10 <= 0
 AVUB11:  - 33 x.11.1 + y.11 <= 0
 AVUB12:  - 33 x.12.1 + y.12 <= 0
 AVUB13:  - 33 x.13.1 + y.13 <= 0
 AVUB14:  - 33 x.14.1 + y.14 <= 0
 AVUB15:  - 33 x.15.1 + y.15 <= 0
 AVUB16:  - 33 x.16.1 + y.16 <= 0
 AVUB17:  - 33 x.17.1 + y.17 <= 0
 AVUB18:  - 33 x.18.1 + y.18 <= 0
 AVUB19:  - 33 x.19.1 + y.19 <= 0
 AVUB20:  - 33 x.20.1 + y.20 <= 0
 AVUB21:  - 33 x.21.1 + y.21 <= 0
 AVUB22:  - 33 x.22.1 + y.22 <= 0
 AVUB23:  - 33 x.23.1 + y.23 <= 0
 AVUB24:  - 33 x.24.1 + y.24 <= 0
 AVUB25:  - 33 x.25.1 + y.25 <= 0
 AVUB26:  - 33 x.26.1 + y.26 <= 0
 AVUB27:  - 33 x.27.1 + y.27 <= 0
 AVUB28:  - 33 x.28.1 + y.28 <= 0
 AVUB29:  - 33 x.29.1 + y.29 <= 0
 AVUB30:  - 33 x.30.1 + y.30 <= 0
 AVUB31:  - 33 x.31.1 + y.31 <= 0
 AVUB32:  - 33 x.32.1 + y.32 <= 0
 AVUB33:  - 33 x.33.1 + y.33 <= 0
 AVUB34:  - 33 x.34.1 + y.34 <= 0
 AVUB35:  - 33 x.35.1 + y.35 <= 0
 AVUB36:  - 33 x.36.1 + y.36 <= 0
 AVUB37:  - 33 x.37.1 + y.37 <= 0
 AVUB38:  - 33 x.38.1 + y.38 <= 0
 AVUB39:  - 33 x.39.1 + y.39 <= 0
 AVUB40:  - 33 x.40.1 + y.40 <= 0
 AVUB41:  - 33 x.41.1 + y.41 <= 0
 AVUB42:  - 33 x.42.1 + y.42 <= 0
 AVUB43:  - 33 x.43.1 + y.43 <= 0
 AVUB44:  - 33 x.44.1 + y.44 <= 0
 AVUB45:  - 33 x.45.1 + y.45 <= 0
 AVUB46:  - 33 x.46.1 + y.46 <= 0
 AVUB47:  - 33 x.47.1 + y.47 <= 0
 AVUB48:  - 33 x.48.1 + y.48 <= 0
 AVUB49:  - 33 x.49.1 + y.49 <= 0
 AVUB50:  - 33 x.50.1 + y.50 <= 0
 AVUB51:  - 33 x.51.1 + y.51 <= 0
 AVUB52:  - 33 x.52.1 + y.52 <= 0
 AVUB53:  - 33 x.53.1 + y.53 <= 0
 AVUB54:  - 33 x.54.1 + y.54 <= 0
 AVUB55:  - 33 x.55.1 + y.55 <= 0
 AVUB56:  - 33 x.56.1 + y.56 <= 0
 AVUB57:  - 33 x.57.1 + y.57 <= 0
 AVUB58:  - 33 x.58.1 + y.58 <= 0
 AVUB59:  - 33 x.59.1 + y.59 <= 0
 AVUB60:  - 33 x.60.1 + y.60 <= 0
 AVUB61:  - 33 x.61.1 + y.61 <= 0
 AVUB62:  - 33 x.62.1 + y.62 <= 0
 AVUB63:  - 33 x.63.1 + y.63 <= 0
 AVUB64:  - 33 x.64.1 + y.64 <= 0
 AVUB65:  - 33 x.65.1 + y.65 <= 0
 AVUB66:  - 33 x.66.1 + y.66 <= 0
 AVUB67:  - 33 x.67.1 + y.67 <= 0
 AVUB68:  - 33 x.68.1 + y.68 <= 0
 AVUB69:  - 33 x.69.1 + y.69 <= 0
 AVUB70:  - 33 x.70.1 + y.70 <= 0
 AVUB71:  - 33 x.71.1 + y.71 <= 0
 AVUB72:  - 33 x.72.1 + y.72 <= 0
 AVUB73:  - 33 x.73.1 + y.73 <= 0
 AVUB74:  - 33 x.74.1 + y.74 <= 0
 AVUB75:  - 33 x.75.1 + y.75 <= 0
 AVUB76:  - 33 x.76.1 + y.76 <= 0
 AVUB77:  - 33 x.77.1 + y.77 <= 0
 AVUB78:  - 33 x.78.1 + y.78 <= 0
 AVUB79:  - 33 x.79.1 + y.79 <= 0
 AVUB80:  - 33 x.80.1 + y.80 <= 0
 AVUB81:  - 33 x.81.1 + y.81 <= 0
 AVUB82:  - 33 x.82.1 + y.82 <= 0
 AVUB83:  - 33 x.83.1 + y.83 <= 0
 AVUB84:  - 33 x.84.1 + y.84 <= 0
 AVUB85:  - 33 x.85.1 + y.85 <= 0
 AVUB86:  - 33 x.86.1 + y.86 <= 0
 AVUB87:  - 33 x.87.1 + y.87 <= 0
 AVUB88:  - 33 x.88.1 + y.88 <= 0
 AVUB89:  - 33 x.89.1 + y.89 <= 0
 AVUB90:  - 33 x.90.1 + y.90 <= 0
 AVUB91:  - 33 x.91.1 + y.91 <= 0
 AVUB92:  - 33 x.92.1 + y.92 <= 0
 AVUB93:  - 33 x.93.1 + y.93 <= 0
 AVUB94:  - 33 x.94.1 + y.94 <= 0
 AVUB95:  - 33 x.95.1 + y.95 <= 0
 AVUB96:  - 33 x.96.1 + y.96 <= 0
 AVUB97:  - 33 x.97.1 + y.97 <= 0
 AVUB98:  - 33 x.98.1 + y.98 <= 0
 AVUB99:  - 33 x.99.1 + y.99 <= 0
 AVUB100: - 33 x.100.1 + y.100 <= 0
 AVUB101: - 33 x.101.1 + y.101 <= 0
 AVUB102: - 33 x.102.1 + y.102 <= 0
 AVUB103: - 33 x.103.1 + y.103 <= 0
 AVUB104: - 33 x.104.1 + y.104 <= 0
 AVUB105: - 33 x.105.1 + y.105 <= 0
 AVUB106: - 33 x.106.1 + y.106 <= 0
 AVUB107: - 33 x.107.1 + y.107 <= 0
 AVUB108: - 33 x.108.1 + y.108 <= 0
 AVUB109: - 33 x.109.1 + y.109 <= 0
 AVUB110: - 33 x.110.1 + y.110 <= 0
 AVUB111: - 33 x.111.1 + y.111 <= 0
 AVUB112: - 33 x.112.1 + y.112 <= 0
 AVUB113: - 33 x.113.1 + y.113 <= 0
 AVUB114: - 33 x.114.1 + y.114 <= 0
 AVUB115: - 33 x.115.1 + y.115 <= 0
 AVUB116: - 33 x.116.1 + y.116 <= 0
 AVUB117: - 33 x.117.1 + y.117 <= 0
 AVUB118: - 33 x.118.1 + y.118 <= 0
 AVUB119: - 33 x.119.1 + y.119 <= 0
 AVUB120: - 33 x.120.1 + y.120 <= 0
 AVUB121: - 33 x.121.1 + y.121 <= 0
 AVUB122: - 33 x.122.1 + y.122 <= 0
 AVUB123: - 33 x.123.1 + y.123 <= 0
 AVUB124: - 33 x.124.1 + y.124 <= 0
 AVUB125: - 33 x.125.1 + y.125 <= 0
 AVUB126: - 33 x.126.1 + y.126 <= 0
 AVUB127: - 33 x.127.1 + y.127 <= 0
 AVUB128: - 33 x.128.1 + y.128 <= 0
 AVUB129: - 33 x.129.1 + y.129 <= 0
 AVUB130: - 33 x.130.1 + y.130 <= 0
 AVUB131: - 33 x.131.1 + y.131 <= 0
 AVUB132: - 33 x.132.1 + y.132 <= 0
 AVUB133: - 33 x.133.1 + y.133 <= 0
 AVUB134: - 33 x.134.1 + y.134 <= 0
 AVUB135: - 33 x.135.1 + y.135 <= 0
 AVUB136: - 33 x.136.1 + y.136 <= 0
 AVUB137: - 33 x.137.1 + y.137 <= 0
 AVUB138: - 33 x.138.1 + y.138 <= 0
 AVUB139: - 33 x.139.1 + y.139 <= 0
 AVUB140: - 33 x.140.1 + y.140 <= 0
 AVUB141: - 33 x.141.1 + y.141 <= 0
 AVUB142: - 33 x.142.1 + y.142 <= 0
 AVUB143: - 33 x.143.1 + y.143 <= 0
 AVUB144: - 33 x.144.1 + y.144 <= 0
 AVUB145: - 33 x.145.1 + y.145 <= 0
 AVUB146: - 33 x.146.1 + y.146 <= 0
 AVUB147: - 33 x.147.1 + y.147 <= 0
 AVUB148: - 33 x.148.1 + y.148 <= 0
 AVUB149: - 33 x.149.1 + y.149 <= 0
 AVUB150: - 33 x.150.1 + y.150 <= 0
 AVUB151: - 33 x.151.1 + y.151 <= 0
 AVUB152: - 33 x.152.1 + y.152 <= 0
 AVUB153: - 33 x.153.1 + y.153 <= 0
 AVUB154: - 33 x.154.1 + y.154 <= 0
 AVUB155: - 33 x.155.1 + y.155 <= 0
 AVUB156: - 33 x.156.1 + y.156 <= 0
 AVUB157: - 33 x.157.1 + y.157 <= 0
 AVUB158: - 33 x.158.1 + y.158 <= 0
 AVUB159: - 33 x.159.1 + y.159 <= 0
 AVUB160: - 33 x.160.1 + y.160 <= 0
 AVUB161: - 33 x.161.1 + y.161 <= 0
 AVUB162: - 33 x.162.1 + y.162 <= 0
 AVUB163: - 33 x.163.1 + y.163 <= 0
 AVUB164: - 33 x.164.1 + y.164 <= 0
 AVUB165: - 33 x.165.1 + y.165 <= 0
 AVUB166: - 33 x.166.1 + y.166 <= 0
 AVUB167: - 33 x.167.1 + y.167 <= 0
 AVUB168: - 33 x.168.1 + y.168 <= 0
 AVUB169: - 33 x.169.1 + y.169 <= 0
 AVUB170: - 33 x.170.1 + y.170 <= 0
 AVUB171: - 33 x.171.1 + y.171 <= 0
 AVUB172: - 33 x.172.1 + y.172 <= 0
 AVUB173: - 33 x.173.1 + y.173 <= 0
 AVUB174: - 33 x.174.1 + y.174 <= 0
 AVUB175: - 33 x.175.1 + y.175 <= 0
 AVUB176: - 33 x.176.1 + y.176 <= 0
 AVUB177: - 33 x.177.1 + y.177 <= 0
 AVUB178: - 33 x.178.1 + y.178 <= 0
 AVUB179: - 33 x.179.1 + y.179 <= 0
 AVUB180: - 33 x.180.1 + y.180 <= 0
 AVUB181: - 33 x.181.1 + y.181 <= 0
 AVUB182: - 33 x.182.1 + y.182 <= 0
 AVUB183: - 33 x.183.1 + y.183 <= 0
 AVUB184: - 33 x.184.1 + y.184 <= 0
 AVUB185: - 33 x.185.1 + y.185 <= 0
 AVUB186: - 33 x.186.1 + y.186 <= 0
 AVUB187: - 33 x.187.1 + y.187 <= 0
 AVUB188: - 33 x.188.1 + y.188 <= 0
 AVUB189: - 33 x.189.1 + y.189 <= 0
 AVUB190: - 33 x.190.1 + y.190 <= 0
 AVUB191: - 33 x.191.1 + y.191 <= 0
 AVUB192: - 33 x.192.1 + y.192 <= 0
 AVUB193: - 33 x.193.1 + y.193 <= 0
 AVUB194: - 33 x.194.1 + y.194 <= 0
 AVUB195: - 33 x.195.1 + y.195 <= 0
 AVUB196: - 33 x.196.1 + y.196 <= 0
 AVUB197: - 33 x.197.1 + y.197 <= 0
 AVUB198: - 33 x.198.1 + y.198 <= 0
 AVUB199: - 33 x.199.1 + y.199 <= 0
 AVUB200: - 33 x.200.1 + y.200 <= 0
 AVUB201: - 33 x.201.1 + y.201 <= 0
 AVUB202: - 33 x.202.1 + y.202 <= 0
 AVUB203: - 33 x.203.1 + y.203 <= 0
 AVUB204: - 33 x.204.1 + y.204 <= 0
 AVUB205: - 33 x.205.1 + y.205 <= 0
 AVUB206: - 33 x.206.1 + y.206 <= 0
 AVUB207: - 33 x.207.1 + y.207 <= 0
 AVUB208: - 33 x.208.1 + y.208 <= 0
 AVUB209: - 33 x.209.1 + y.209 <= 0
 AVUB210: - 33 x.210.1 + y.210 <= 0
 AVUB211: - 33 x.211.1 + y.211 <= 0
 AVUB212: - 33 x.212.1 + y.212 <= 0
 AVUB213: - 33 x.213.1 + y.213 <= 0
 AVUB214: - 33 x.214.1 + y.214 <= 0
 AVUB215: - 33 x.215.1 + y.215 <= 0
 AVUB216: - 33 x.216.1 + y.216 <= 0
 AVUB217: - 33 x.217.1 + y.217 <= 0
 AVUB218: - 33 x.218.1 + y.218 <= 0
 AVUB219: - 33 x.219.1 + y.219 <= 0
 AVUB220: - 33 x.220.1 + y.220 <= 0
 AVUB221: - 33 x.221.1 + y.221 <= 0
 AVUB222: - 33 x.222.1 + y.222 <= 0
 AVUB223: - 33 x.223.1 + y.223 <= 0
 AVUB224: - 33 x.224.1 + y.224 <= 0
 AVUB225: - 33 x.225.1 + y.225 <= 0
 AVUB226: - 33 x.226.1 + y.226 <= 0
 AVUB227: - 33 x.227.1 + y.227 <= 0
 AVUB228: - 33 x.228.1 + y.228 <= 0
 AVUB229: - 33 x.229.1 + y.229 <= 0
 AVUB230: - 33 x.230.1 + y.230 <= 0
 AVUB231: - 33 x.231.1 + y.231 <= 0
 AVUB232: - 33 x.232.1 + y.232 <= 0
 AVUB233: - 33 x.233.1 + y.233 <= 0
 AVUB234: - 33 x.234.1 + y.234 <= 0
 AVUB235: - 33 x.235.1 + y.235 <= 0
 AVUB236: - 33 x.236.1 + y.236 <= 0
 AVUB237: - 33 x.237.1 + y.237 <= 0
 AVUB238: - 33 x.238.1 + y.238 <= 0
 AVUB239: - 33 x.239.1 + y.239 <= 0
 AVUB240: - 33 x.240.1 + y.240 <= 0
 AVUB241: - 33 x.241.1 + y.241 <= 0
 AVUB242: - 33 x.242.1 + y.242 <= 0
 AVUB243: - 33 x.243.1 + y.243 <= 0
 AVUB244: - 33 x.244.1 + y.244 <= 0
 GUB0:    x.0.1 <= 1
 GUB1:    x.1.1 <= 1
 GUB2:    x.2.1 <= 1
 GUB3:    x.3.1 <= 1
 GUB4:    x.4.1 <= 1
 GUB5:    x.5.1 <= 1
 GUB6:    x.6.1 <= 1
 GUB7:    x.7.1 <= 1
 GUB8:    x.8.1 <= 1
 GUB9:    x.9.1 <= 1
 GUB10:   x.10.1 <= 1
 GUB11:   x.11.1 <= 1
 GUB12:   x.12.1 <= 1
 GUB13:   x.13.1 <= 1
 GUB14:   x.14.1 <= 1
 GUB15:   x.15.1 <= 1
 GUB16:   x.16.1 <= 1
 GUB17:   x.17.1 <= 1
 GUB18:   x.18.1 <= 1
 GUB19:   x.19.1 <= 1
 GUB20:   x.20.1 <= 1
 GUB21:   x.21.1 <= 1
 GUB22:   x.22.1 <= 1
 GUB23:   x.23.1 <= 1
 GUB24:   x.24.1 <= 1
 GUB25:   x.25.1 <= 1
 GUB26:   x.26.1 <= 1
 GUB27:   x.27.1 <= 1
 GUB28:   x.28.1 <= 1
 GUB29:   x.29.1 <= 1
 GUB30:   x.30.1 <= 1
 GUB31:   x.31.1 <= 1
 GUB32:   x.32.1 <= 1
 GUB33:   x.33.1 <= 1
 GUB34:   x.34.1 <= 1
 GUB35:   x.35.1 <= 1
 GUB36:   x.36.1 <= 1
 GUB37:   x.37.1 <= 1
 GUB38:   x.38.1 <= 1
 GUB39:   x.39.1 <= 1
 GUB40:   x.40.1 <= 1
 GUB41:   x.41.1 <= 1
 GUB42:   x.42.1 <= 1
 GUB43:   x.43.1 <= 1
 GUB44:   x.44.1 <= 1
 GUB45:   x.45.1 <= 1
 GUB46:   x.46.1 <= 1
 GUB47:   x.47.1 <= 1
 GUB48:   x.48.1 <= 1
 GUB49:   x.49.1 <= 1
 GUB50:   x.50.1 <= 1
 GUB51:   x.51.1 <= 1
 GUB52:   x.52.1 <= 1
 GUB53:   x.53.1 <= 1
 GUB54:   x.54.1 <= 1
 GUB55:   x.55.1 <= 1
 GUB56:   x.56.1 <= 1
 GUB57:   x.57.1 <= 1
 GUB58:   x.58.1 <= 1
 GUB59:   x.59.1 <= 1
 GUB60:   x.60.1 <= 1
 GUB61:   x.61.1 <= 1
 GUB62:   x.62.1 <= 1
 GUB63:   x.63.1 <= 1
 GUB64:   x.64.1 <= 1
 GUB65:   x.65.1 <= 1
 GUB66:   x.66.1 <= 1
 GUB67:   x.67.1 <= 1
 GUB68:   x.68.1 <= 1
 GUB69:   x.69.1 <= 1
 GUB70:   x.70.1 <= 1
 GUB71:   x.71.1 <= 1
 GUB72:   x.72.1 <= 1
 GUB73:   x.73.1 <= 1
 GUB74:   x.74.1 <= 1
 GUB75:   x.75.1 <= 1
 GUB76:   x.76.1 <= 1
 GUB77:   x.77.1 <= 1
 GUB78:   x.78.1 <= 1
 GUB79:   x.79.1 <= 1
 GUB80:   x.80.1 <= 1
 GUB81:   x.81.1 <= 1
 GUB82:   x.82.1 <= 1
 GUB83:   x.83.1 <= 1
 GUB84:   x.84.1 <= 1
 GUB85:   x.85.1 <= 1
 GUB86:   x.86.1 <= 1
 GUB87:   x.87.1 <= 1
 GUB88:   x.88.1 <= 1
 GUB89:   x.89.1 <= 1
 GUB90:   x.90.1 <= 1
 GUB91:   x.91.1 <= 1
 GUB92:   x.92.1 <= 1
 GUB93:   x.93.1 <= 1
 GUB94:   x.94.1 <= 1
 GUB95:   x.95.1 <= 1
 GUB96:   x.96.1 <= 1
 GUB97:   x.97.1 <= 1
 GUB98:   x.98.1 <= 1
 GUB99:   x.99.1 <= 1
 GUB100:  x.100.1 <= 1
 GUB101:  x.101.1 <= 1
 GUB102:  x.102.1 <= 1
 GUB103:  x.103.1 <= 1
 GUB104:  x.104.1 <= 1
 GUB105:  x.105.1 <= 1
 GUB106:  x.106.1 <= 1
 GUB107:  x.107.1 <= 1
 GUB108:  x.108.1 <= 1
 GUB109:  x.109.1 <= 1
 GUB110:  x.110.1 <= 1
 GUB111:  x.111.1 <= 1
 GUB112:  x.112.1 <= 1
 GUB113:  x.113.1 <= 1
 GUB114:  x.114.1 <= 1
 GUB115:  x.115.1 <= 1
 GUB116:  x.116.1 <= 1
 GUB117:  x.117.1 <= 1
 GUB118:  x.118.1 <= 1
 GUB119:  x.119.1 <= 1
 GUB120:  x.120.1 <= 1
 GUB121:  x.121.1 <= 1
 GUB122:  x.122.1 <= 1
 GUB123:  x.123.1 <= 1
 GUB124:  x.124.1 <= 1
 GUB125:  x.125.1 <= 1
 GUB126:  x.126.1 <= 1
 GUB127:  x.127.1 <= 1
 GUB128:  x.128.1 <= 1
 GUB129:  x.129.1 <= 1
 GUB130:  x.130.1 <= 1
 GUB131:  x.131.1 <= 1
 GUB132:  x.132.1 <= 1
 GUB133:  x.133.1 <= 1
 GUB134:  x.134.1 <= 1
 GUB135:  x.135.1 <= 1
 GUB136:  x.136.1 <= 1
 GUB137:  x.137.1 <= 1
 GUB138:  x.138.1 <= 1
 GUB139:  x.139.1 <= 1
 GUB140:  x.140.1 <= 1
 GUB141:  x.141.1 <= 1
 GUB142:  x.142.1 <= 1
 GUB143:  x.143.1 <= 1
 GUB144:  x.144.1 <= 1
 GUB145:  x.145.1 <= 1
 GUB146:  x.146.1 <= 1
 GUB147:  x.147.1 <= 1
 GUB148:  x.148.1 <= 1
 GUB149:  x.149.1 <= 1
 GUB150:  x.150.1 <= 1
 GUB151:  x.151.1 <= 1
 GUB152:  x.152.1 <= 1
 GUB153:  x.153.1 <= 1
 GUB154:  x.154.1 <= 1
 GUB155:  x.155.1 <= 1
 GUB156:  x.156.1 <= 1
 GUB157:  x.157.1 <= 1
 GUB158:  x.158.1 <= 1
 GUB159:  x.159.1 <= 1
 GUB160:  x.160.1 <= 1
 GUB161:  x.161.1 <= 1
 GUB162:  x.162.1 <= 1
 GUB163:  x.163.1 <= 1
 GUB164:  x.164.1 <= 1
 GUB165:  x.165.1 <= 1
 GUB166:  x.166.1 <= 1
 GUB167:  x.167.1 <= 1
 GUB168:  x.168.1 <= 1
 GUB169:  x.169.1 <= 1
 GUB170:  x.170.1 <= 1
 GUB171:  x.171.1 <= 1
 GUB172:  x.172.1 <= 1
 GUB173:  x.173.1 <= 1
 GUB174:  x.174.1 <= 1
 GUB175:  x.175.1 <= 1
 GUB176:  x.176.1 <= 1
 GUB177:  x.177.1 <= 1
 GUB178:  x.178.1 <= 1
 GUB179:  x.179.1 <= 1
 GUB180:  x.180.1 <= 1
 GUB181:  x.181.1 <= 1
 GUB182:  x.182.1 <= 1
 GUB183:  x.183.1 <= 1
 GUB184:  x.184.1 <= 1
 GUB185:  x.185.1 <= 1
 GUB186:  x.186.1 <= 1
 GUB187:  x.187.1 <= 1
 GUB188:  x.188.1 <= 1
 GUB189:  x.189.1 <= 1
 GUB190:  x.190.1 <= 1
 GUB191:  x.191.1 <= 1
 GUB192:  x.192.1 <= 1
 GUB193:  x.193.1 <= 1
 GUB194:  x.194.1 <= 1
 GUB195:  x.195.1 <= 1
 GUB196:  x.196.1 <= 1
 GUB197:  x.197.1 <= 1
 GUB198:  x.198.1 <= 1
 GUB199:  x.199.1 <= 1
 GUB200:  x.200.1 <= 1
 GUB201:  x.201.1 <= 1
 GUB202:  x.202.1 <= 1
 GUB203:  x.203.1 <= 1
 GUB204:  x.204.1 <= 1
 GUB205:  x.205.1 <= 1
 GUB206:  x.206.1 <= 1
 GUB207:  x.207.1 <= 1
 GUB208:  x.208.1 <= 1
 GUB209:  x.209.1 <= 1
 GUB210:  x.210.1 <= 1
 GUB211:  x.211.1 <= 1
 GUB212:  x.212.1 <= 1
 GUB213:  x.213.1 <= 1
 GUB214:  x.214.1 <= 1
 GUB215:  x.215.1 <= 1
 GUB216:  x.216.1 <= 1
 GUB217:  x.217.1 <= 1
 GUB218:  x.218.1 <= 1
 GUB219:  x.219.1 <= 1
 GUB220:  x.220.1 <= 1
 GUB221:  x.221.1 <= 1
 GUB222:  x.222.1 <= 1
 GUB223:  x.223.1 <= 1
 GUB224:  x.224.1 <= 1
 GUB225:  x.225.1 <= 1
 GUB226:  x.226.1 <= 1
 GUB227:  x.227.1 <= 1
 GUB228:  x.228.1 <= 1
 GUB229:  x.229.1 <= 1
 GUB230:  x.230.1 <= 1
 GUB231:  x.231.1 <= 1
 GUB232:  x.232.1 <= 1
 GUB233:  x.233.1 <= 1
 GUB234:  x.234.1 <= 1
 GUB235:  x.235.1 <= 1
 GUB236:  x.236.1 <= 1
 GUB237:  x.237.1 <= 1
 GUB238:  x.238.1 <= 1
 GUB239:  x.239.1 <= 1
 GUB240:  x.240.1 <= 1
 GUB241:  x.241.1 <= 1
 GUB242:  x.242.1 <= 1
 GUB243:  x.243.1 <= 1
 GUB244:  x.244.1 <= 1
Bounds
 0 <= x.0.1 <= 1
 0 <= x.1.1 <= 1
 0 <= x.2.1 <= 1
 0 <= x.3.1 <= 1
 0 <= x.4.1 <= 1
 0 <= x.5.1 <= 1
 0 <= x.6.1 <= 1
 0 <= x.7.1 <= 1
 0 <= x.8.1 <= 1
 0 <= x.9.1 <= 1
 0 <= x.10.1 <= 1
 0 <= x.11.1 <= 1
 0 <= x.12.1 <= 1
 0 <= x.13.1 <= 1
 0 <= x.14.1 <= 1
 0 <= x.15.1 <= 1
 0 <= x.16.1 <= 1
 0 <= x.17.1 <= 1
 0 <= x.18.1 <= 1
 0 <= x.19.1 <= 1
 0 <= x.20.1 <= 1
 0 <= x.21.1 <= 1
 0 <= x.22.1 <= 1
 0 <= x.23.1 <= 1
 0 <= x.24.1 <= 1
 0 <= x.25.1 <= 1
 0 <= x.26.1 <= 1
 0 <= x.27.1 <= 1
 0 <= x.28.1 <= 1
 0 <= x.29.1 <= 1
 0 <= x.30.1 <= 1
 0 <= x.31.1 <= 1
 0 <= x.32.1 <= 1
 0 <= x.33.1 <= 1
 0 <= x.34.1 <= 1
 0 <= x.35.1 <= 1
 0 <= x.36.1 <= 1
 0 <= x.37.1 <= 1
 0 <= x.38.1 <= 1
 0 <= x.39.1 <= 1
 0 <= x.40.1 <= 1
 0 <= x.41.1 <= 1
 0 <= x.42.1 <= 1
 0 <= x.43.1 <= 1
 0 <= x.44.1 <= 1
 0 <= x.45.1 <= 1
 0 <= x.46.1 <= 1
 0 <= x.47.1 <= 1
 0 <= x.48.1 <= 1
 0 <= x.49.1 <= 1
 0 <= x.50.1 <= 1
 0 <= x.51.1 <= 1
 0 <= x.52.1 <= 1
 0 <= x.53.1 <= 1
 0 <= x.54.1 <= 1
 0 <= x.55.1 <= 1
 0 <= x.56.1 <= 1
 0 <= x.57.1 <= 1
 0 <= x.58.1 <= 1
 0 <= x.59.1 <= 1
 0 <= x.60.1 <= 1
 0 <= x.61.1 <= 1
 0 <= x.62.1 <= 1
 0 <= x.63.1 <= 1
 0 <= x.64.1 <= 1
 0 <= x.65.1 <= 1
 0 <= x.66.1 <= 1
 0 <= x.67.1 <= 1
 0 <= x.68.1 <= 1
 0 <= x.69.1 <= 1
 0 <= x.70.1 <= 1
 0 <= x.71.1 <= 1
 0 <= x.72.1 <= 1
 0 <= x.73.1 <= 1
 0 <= x.74.1 <= 1
 0 <= x.75.1 <= 1
 0 <= x.76.1 <= 1
 0 <= x.77.1 <= 1
 0 <= x.78.1 <= 1
 0 <= x.79.1 <= 1
 0 <= x.80.1 <= 1
 0 <= x.81.1 <= 1
 0 <= x.82.1 <= 1
 0 <= x.83.1 <= 1
 0 <= x.84.1 <= 1
 0 <= x.85.1 <= 1
 0 <= x.86.1 <= 1
 0 <= x.87.1 <= 1
 0 <= x.88.1 <= 1
 0 <= x.89.1 <= 1
 0 <= x.90.1 <= 1
 0 <= x.91.1 <= 1
 0 <= x.92.1 <= 1
 0 <= x.93.1 <= 1
 0 <= x.94.1 <= 1
 0 <= x.95.1 <= 1
 0 <= x.96.1 <= 1
 0 <= x.97.1 <= 1
 0 <= x.98.1 <= 1
 0 <= x.99.1 <= 1
 0 <= x.100.1 <= 1
 0 <= x.101.1 <= 1
 0 <= x.102.1 <= 1
 0 <= x.103.1 <= 1
 0 <= x.104.1 <= 1
 0 <= x.105.1 <= 1
 0 <= x.106.1 <= 1
 0 <= x.107.1 <= 1
 0 <= x.108.1 <= 1
 0 <= x.109.1 <= 1
 0 <= x.110.1 <= 1
 0 <= x.111.1 <= 1
 0 <= x.112.1 <= 1
 0 <= x.113.1 <= 1
 0 <= x.114.1 <= 1
 0 <= x.115.1 <= 1
 0 <= x.116.1 <= 1
 0 <= x.117.1 <= 1
 0 <= x.118.1 <= 1
 0 <= x.119.1 <= 1
 0 <= x.120.1 <= 1
 0 <= x.121.1 <= 1
 0 <= x.122.1 <= 1
 0 <= x.123.1 <= 1
 0 <= x.124.1 <= 1
 0 <= x.125.1 <= 1
 0 <= x.126.1 <= 1
 0 <= x.127.1 <= 1
 0 <= x.128.1 <= 1
 0 <= x.129.1 <= 1
 0 <= x.130.1 <= 1
 0 <= x.131.1 <= 1
 0 <= x.132.1 <= 1
 0 <= x.133.1 <= 1
 0 <= x.134.1 <= 1
 0 <= x.135.1 <= 1
 0 <= x.136.1 <= 1
 0 <= x.137.1 <= 1
 0 <= x.138.1 <= 1
 0 <= x.139.1 <= 1
 0 <= x.140.1 <= 1
 0 <= x.141.1 <= 1
 0 <= x.142.1 <= 1
 0 <= x.143.1 <= 1
 0 <= x.144.1 <= 1
 0 <= x.145.1 <= 1
 0 <= x.146.1 <= 1
 0 <= x.147.1 <= 1
 0 <= x.148.1 <= 1
 0 <= x.149.1 <= 1
 0 <= x.150.1 <= 1
 0 <= x.151.1 <= 1
 0 <= x.152.1 <= 1
 0 <= x.153.1 <= 1
 0 <= x.154.1 <= 1
 0 <= x.155.1 <= 1
 0 <= x.156.1 <= 1
 0 <= x.157.1 <= 1
 0 <= x.158.1 <= 1
 0 <= x.159.1 <= 1
 0 <= x.160.1 <= 1
 0 <= x.161.1 <= 1
 0 <= x.162.1 <= 1
 0 <= x.163.1 <= 1
 0 <= x.164.1 <= 1
 0 <= x.165.1 <= 1
 0 <= x.166.1 <= 1
 0 <= x.167.1 <= 1
 0 <= x.168.1 <= 1
 0 <= x.169.1 <= 1
 0 <= x.170.1 <= 1
 0 <= x.171.1 <= 1
 0 <= x.172.1 <= 1
 0 <= x.173.1 <= 1
 0 <= x.174.1 <= 1
 0 <= x.175.1 <= 1
 0 <= x.176.1 <= 1
 0 <= x.177.1 <= 1
 0 <= x.178.1 <= 1
 0 <= x.179.1 <= 1
 0 <= x.180.1 <= 1
 0 <= x.181.1 <= 1
 0 <= x.182.1 <= 1
 0 <= x.183.1 <= 1
 0 <= x.184.1 <= 1
 0 <= x.185.1 <= 1
 0 <= x.186.1 <= 1
 0 <= x.187.1 <= 1
 0 <= x.188.1 <= 1
 0 <= x.189.1 <= 1
 0 <= x.190.1 <= 1
 0 <= x.191.1 <= 1
 0 <= x.192.1 <= 1
 0 <= x.193.1 <= 1
 0 <= x.194.1 <= 1
 0 <= x.195.1 <= 1
 0 <= x.196.1 <= 1
 0 <= x.197.1 <= 1
 0 <= x.198.1 <= 1
 0 <= x.199.1 <= 1
 0 <= x.200.1 <= 1
 0 <= x.201.1 <= 1
 0 <= x.202.1 <= 1
 0 <= x.203.1 <= 1
 0 <= x.204.1 <= 1
 0 <= x.205.1 <= 1
 0 <= x.206.1 <= 1
 0 <= x.207.1 <= 1
 0 <= x.208.1 <= 1
 0 <= x.209.1 <= 1
 0 <= x.210.1 <= 1
 0 <= x.211.1 <= 1
 0 <= x.212.1 <= 1
 0 <= x.213.1 <= 1
 0 <= x.214.1 <= 1
 0 <= x.215.1 <= 1
 0 <= x.216.1 <= 1
 0 <= x.217.1 <= 1
 0 <= x.218.1 <= 1
 0 <= x.219.1 <= 1
 0 <= x.220.1 <= 1
 0 <= x.221.1 <= 1
 0 <= x.222.1 <= 1
 0 <= x.223.1 <= 1
 0 <= x.224.1 <= 1
 0 <= x.225.1 <= 1
 0 <= x.226.1 <= 1
 0 <= x.227.1 <= 1
 0 <= x.228.1 <= 1
 0 <= x.229.1 <= 1
 0 <= x.230.1 <= 1
 0 <= x.231.1 <= 1
 0 <= x.232.1 <= 1
 0 <= x.233.1 <= 1
 0 <= x.234.1 <= 1
 0 <= x.235.1 <= 1
 0 <= x.236.1 <= 1
 0 <= x.237.1 <= 1
 0 <= x.238.1 <= 1
 0 <= x.239.1 <= 1
 0 <= x.240.1 <= 1
 0 <= x.241.1 <= 1
 0 <= x.242.1 <= 1
 0 <= x.243.1 <= 1
 0 <= x.244.1 <= 1
Binaries
 x.0.1  x.1.1  x.2.1  x.3.1  x.4.1  x.5.1  x.6.1  x.7.1  x.8.1  x.9.1  x.10.1 
 x.11.1  x.12.1  x.13.1  x.14.1  x.15.1  x.16.1  x.17.1  x.18.1  x.19.1 
 x.20.1  x.21.1  x.22.1  x.23.1  x.24.1  x.25.1  x.26.1  x.27.1  x.28.1 
 x.29.1  x.30.1  x.31.1  x.32.1  x.33.1  x.34.1  x.35.1  x.36.1  x.37.1 
 x.38.1  x.39.1  x.40.1  x.41.1  x.42.1  x.43.1  x.44.1  x.45.1  x.46.1 
 x.47.1  x.48.1  x.49.1  x.50.1  x.51.1  x.52.1  x.53.1  x.54.1  x.55.1 
 x.56.1  x.57.1  x.58.1  x.59.1  x.60.1  x.61.1  x.62.1  x.63.1  x.64.1 
 x.65.1  x.66.1  x.67.1  x.68.1  x.69.1  x.70.1  x.71.1  x.72.1  x.73.1 
 x.74.1  x.75.1  x.76.1  x.77.1  x.78.1  x.79.1  x.80.1  x.81.1  x.82.1 
 x.83.1  x.84.1  x.85.1  x.86.1  x.87.1  x.88.1  x.89.1  x.90.1  x.91.1 
 x.92.1  x.93.1  x.94.1  x.95.1  x.96.1  x.97.1  x.98.1  x.99.1  x.100.1 
 x.101.1  x.102.1  x.103.1  x.104.1  x.105.1  x.106.1  x.107.1  x.108.1 
 x.109.1  x.110.1  x.111.1  x.112.1  x.113.1  x.114.1  x.115.1  x.116.1 
 x.117.1  x.118.1  x.119.1  x.120.1  x.121.1  x.122.1  x.123.1  x.124.1 
 x.125.1  x.126.1  x.127.1  x.128.1  x.129.1  x.130.1  x.131.1  x.132.1 
 x.133.1  x.134.1  x.135.1  x.136.1  x.137.1  x.138.1  x.139.1  x.140.1 
 x.141.1  x.142.1  x.143.1  x.144.1  x.145.1  x.146.1  x.147.1  x.148.1 
 x.149.1  x.150.1  x.151.1  x.152.1  x.153.1  x.154.1  x.155.1  x.156.1 
 x.157.1  x.158.1  x.159.1  x.160.1  x.161.1  x.162.1  x.163.1  x.164.1 
 x.165.1  x.166.1  x.167.1  x.168.1  x.169.1  x.170.1  x.171.1  x.172.1 
 x.173.1  x.174.1  x.175.1  x.176.1  x.177.1  x.178.1  x.179.1  x.180.1 
 x.181.1  x.182.1  x.183.1  x.184.1  x.185.1  x.186.1  x.187.1  x.188.1 
 x.189.1  x.190.1  x.191.1  x.192.1  x.193.1  x.194.1  x.195.1  x.196.1 
 x.197.1  x.198.1  x.199.1  x.200.1  x.201.1  x.202.1  x.203.1  x.204.1 
 x.205.1  x.206.1  x.207.1  x.208.1  x.209.1  x.210.1  x.211.1  x.212.1 
 x.213.1  x.214.1  x.215.1  x.216.1  x.217.1  x.218.1  x.219.1  x.220.1 
 x.221.1  x.222.1  x.223.1  x.224.1  x.225.1  x.226.1  x.227.1  x.228.1 
 x.229.1  x.230.1  x.231.1  x.232.1  x.233.1  x.234.1  x.235.1  x.236.1 
 x.237.1  x.238.1  x.239.1  x.240.1  x.241.1  x.242.1  x.243.1  x.244.1 
End
